Route #1: 99 63 124 152 103 86 5
Route #2: 131 4 109 16 2 29 28 32 72 53 112 59 95 75 160 149 21 3
Route #3: 42 54 18 101 27 108 102 100 135 150 98 45 81 164 34 65 110 36 105 80 144 87
Route #4: 76 23 139 154 132 142 19 50 40 31 24 133 70 141 39 11 82 158 60 113 71 143 130
Route #5: 55 8 114 163 145 129 107 64 49 91 161 90 94 166 106 33 74 41 138 128
Route #6: 67 89 6 7 22 73 25 93 162 62 68 48 52 15 92 30 79 121
Route #7: 66 43 117 20 147 104 12 57 77 13 1 122 111 88 136 37 84 10 51 146 120
Route #8: 44 46 159 17 96 38 151 153 116 148 97 115 125 156 85 14 119 140 134
Route #9: 137 83 69 118 47 155 56 58 61 127 126 78 165 26 35 123 9 157
Cost 19332.000000